AES/1_3_4/ssaes_r1-20_c3_rw1_e4_f0_k1-20_aes_1base_box_aes_mc_bidirectional/ExperimentMinisat_r1_k12cnf_2011-10-29-153207/Result
WARNING: for repeatability, setting FPU to use double precision
============================[ Problem Statistics ]=============================
|                                                                             |
|  Number of variables:            92                                         |
|  Number of clauses:             300                                         |
|  Parse time:                   0.00 s                                       |
|  Eliminated clauses:           0.00 Mb                                      |
|  Simplification time:          0.00 s                                       |
|                                                                             |
=============================[ Search Statistics ]==============================
| Conflicts  |          ORIGINAL         |          LEARNT          | Progress |
|            |    Vars  Clauses Literals |    Limit  Clauses Lit/Cl |          |
================================================================================
===============================================================================
restarts              : 1
conflicts             : 11             (inf /sec)
decisions             : 17             (0.00 % random) (inf /sec)
propagations          : 330            (inf /sec)
conflict literals     : 35             (37.50 % deleted)
Memory used           : 8.00 MB
CPU time              : 0 s

SATISFIABLE
